CPXPARAM_TimeLimit                               3600
CPXPARAM_Read_DataCheck                          1
CPXPARAM_MIP_Strategy_HeuristicFreq              -1
Parallel mode: deterministic, using up to 8 threads for concurrent optimization.
Tried aggregator 1 time.
LP Presolve eliminated 27465 rows and 20475 columns.
Reduced LP has 23595 rows, 1801 columns, and 70065 nonzeros.
Presolve time = 0.02 sec. (25.06 ticks)

Iteration log . . .
Iteration:     1   Dual objective     =           921.000000
Perturbation started.
Iteration:   200   Dual objective     =           921.000000
Initializing dual steep norms . . .
Iteration:   201   Dual objective     =           921.000102
Iteration:   651   Dual objective     =           921.013821
Iteration:  1061   Dual objective     =           921.014610
Iteration:  1377   Dual objective     =           921.015055
Iteration:  1738   Dual objective     =           921.015304
Iteration:  2098   Dual objective     =           947.861549
Iteration:  2494   Dual objective     =           947.861853
Iteration:  2787   Dual objective     =           947.861883
Iteration:  3051   Dual objective     =           947.861909
Iteration:  3390   Dual objective     =           947.861932
Removing perturbation.

Dual simplex solved model.

